p cnf 324 1
324 0
w 1 0.0331136
w 2 1 0.0744632
w 2 -1 0.47863
w 3 2 0.459739
w 3 -2 0.0896302
w 4 3 0
w 4 -3 1
w 5 4 0
w 5 -4 1
w 6 5 1
w 6 -5 0
w 7 6 0.879548
w 7 -6 0.328037
w 8 7 0.57316
w 8 -7 0.326541
w 9 8 0.8943
w 9 -8 0.0470043
w 10 9 0.985728
w 10 -9 0.0849692
w 11 10 0
w 11 -10 1
w 12 11 0
w 12 -11 1
w 13 12 0.479835
w 13 -12 0.953268
w 14 13 0.554298
w 14 -13 0.431898
w 15 14 0
w 15 -14 1
w 16 15 0.250256
w 16 -15 0.204745
w 17 16 0.957501
w 17 -16 0.531873
w 18 17 0
w 18 -17 1
w 19 1 1
w 19 -1 0
w 20 19 2 1
w 20 19 -2 1
w 20 -19 2 0
w 20 -19 -2 1
w 21 20 3 0.012094
w 21 20 -3 0.86461
w 21 -20 3 0.944576
w 21 -20 -3 0.155654
w 22 21 4 1
w 22 21 -4 0
w 22 -21 4 1
w 22 -21 -4 1
w 23 22 5 0.244875
w 23 22 -5 0.460973
w 23 -22 5 0.0095214
w 23 -22 -5 0.258912
w 24 23 6 0.259777
w 24 23 -6 0.463657
w 24 -23 6 0.858074
w 24 -23 -6 0.217278
w 25 24 7 0.0160981
w 25 24 -7 0.698763
w 25 -24 7 0.406951
w 25 -24 -7 0.502159
w 26 25 8 0
w 26 25 -8 1
w 26 -25 8 0
w 26 -25 -8 1
w 27 26 9 0
w 27 26 -9 0
w 27 -26 9 1
w 27 -26 -9 1
w 28 27 10 0.329686
w 28 27 -10 0.460231
w 28 -27 10 0.770217
w 28 -27 -10 0.020263
w 29 28 11 1
w 29 28 -11 0
w 29 -28 11 0
w 29 -28 -11 1
w 30 29 12 0.93278
w 30 29 -12 0.830398
w 30 -29 12 0.987707
w 30 -29 -12 0.790854
w 31 30 13 1
w 31 30 -13 0
w 31 -30 13 1
w 31 -30 -13 0
w 32 31 14 1
w 32 31 -14 1
w 32 -31 14 0
w 32 -31 -14 1
w 33 32 15 1
w 33 32 -15 1
w 33 -32 15 0
w 33 -32 -15 0
w 34 33 16 0.724596
w 34 33 -16 0.246872
w 34 -33 16 0.159707
w 34 -33 -16 0.494814
w 35 34 17 0
w 35 34 -17 1
w 35 -34 17 1
w 35 -34 -17 0
w 36 35 18 0.0563223
w 36 35 -18 0.532072
w 36 -35 18 0.456933
w 36 -35 -18 0.0440292
w 37 19 0
w 37 -19 1
w 38 37 20 0
w 38 37 -20 1
w 38 -37 20 1
w 38 -37 -20 1
w 39 38 21 0
w 39 38 -21 1
w 39 -38 21 0
w 39 -38 -21 0
w 40 39 22 0.521987
w 40 39 -22 0.43846
w 40 -39 22 0.778289
w 40 -39 -22 0.221463
w 41 40 23 0
w 41 40 -23 1
w 41 -40 23 0
w 41 -40 -23 0
w 42 41 24 0
w 42 41 -24 1
w 42 -41 24 0
w 42 -41 -24 1
w 43 42 25 0.161546
w 43 42 -25 0.797251
w 43 -42 25 0.924919
w 43 -42 -25 0.484472
w 44 43 26 1
w 44 43 -26 0
w 44 -43 26 1
w 44 -43 -26 0
w 45 44 27 0
w 45 44 -27 0
w 45 -44 27 1
w 45 -44 -27 0
w 46 45 28 0.977305
w 46 45 -28 0.402484
w 46 -45 28 0.258575
w 46 -45 -28 0.755594
w 47 46 29 0.421631
w 47 46 -29 0.780754
w 47 -46 29 0.00511612
w 47 -46 -29 0.0795008
w 48 47 30 0
w 48 47 -30 1
w 48 -47 30 0
w 48 -47 -30 1
w 49 48 31 0
w 49 48 -31 0
w 49 -48 31 1
w 49 -48 -31 1
w 50 49 32 1
w 50 49 -32 0
w 50 -49 32 1
w 50 -49 -32 0
w 51 50 33 0
w 51 50 -33 0
w 51 -50 33 1
w 51 -50 -33 1
w 52 51 34 0
w 52 51 -34 1
w 52 -51 34 1
w 52 -51 -34 0
w 53 52 35 0.366111
w 53 52 -35 0.0943813
w 53 -52 35 0.608336
w 53 -52 -35 0.371227
w 54 53 36 0
w 54 53 -36 1
w 54 -53 36 1
w 54 -53 -36 0
w 55 37 1
w 55 -37 0
w 56 55 38 0
w 56 55 -38 0
w 56 -55 38 1
w 56 -55 -38 0
w 57 56 39 1
w 57 56 -39 1
w 57 -56 39 1
w 57 -56 -39 0
w 58 57 40 1
w 58 57 -40 0
w 58 -57 40 1
w 58 -57 -40 0
w 59 58 41 0.278698
w 59 58 -41 0.590978
w 59 -58 41 0.422772
w 59 -58 -41 0.10628
w 60 59 42 0.517154
w 60 59 -42 0.714616
w 60 -59 42 0.328315
w 60 -59 -42 0.691036
w 61 60 43 0
w 61 60 -43 1
w 61 -60 43 1
w 61 -60 -43 0
w 62 61 44 0.332508
w 62 61 -44 0.703753
w 62 -61 44 0.790588
w 62 -61 -44 0.39344
w 63 62 45 0.0549195
w 63 62 -45 0.109982
w 63 -62 45 0.0457054
w 63 -62 -45 0.104871
w 64 63 46 0.157733
w 64 63 -46 0.614006
w 64 -63 46 0.187619
w 64 -63 -46 0.364443
w 65 64 47 0
w 65 64 -47 0
w 65 -64 47 0
w 65 -64 -47 1
w 66 65 48 0.0108852
w 66 65 -48 0.877567
w 66 -65 48 0.464037
w 66 -65 -48 0.3392
w 67 66 49 0.860037
w 67 66 -49 0.0740403
w 67 -66 49 0.226804
w 67 -66 -49 0.835038
w 68 67 50 0.985773
w 68 67 -50 0.167547
w 68 -67 50 0.58393
w 68 -67 -50 0.776361
w 69 68 51 0.496088
w 69 68 -51 0.831281
w 69 -68 51 0.670968
w 69 -68 -51 0.541794
w 70 69 52 0.522739
w 70 69 -52 0.699527
w 70 -69 52 0.550158
w 70 -69 -52 0.710358
w 71 70 53 0
w 71 70 -53 0
w 71 -70 53 0
w 71 -70 -53 1
w 72 71 54 1
w 72 71 -54 1
w 72 -71 54 1
w 72 -71 -54 0
w 73 55 1
w 73 -55 0
w 74 73 56 1
w 74 73 -56 0
w 74 -73 56 0
w 74 -73 -56 1
w 75 74 57 0.955007
w 75 74 -57 0.443521
w 75 -74 57 0.344179
w 75 -74 -57 0.451096
w 76 75 58 0
w 76 75 -58 1
w 76 -75 58 0
w 76 -75 -58 1
w 77 76 59 0.761111
w 77 76 -59 0.248244
w 77 -76 59 0.756386
w 77 -76 -59 0.774088
w 78 77 60 0.463498
w 78 77 -60 0.840862
w 78 -77 60 0.904654
w 78 -77 -60 0.920031
w 79 78 61 0.790634
w 79 78 -61 0.8406
w 79 -78 61 0.33538
w 79 -78 -61 0.245216
w 80 79 62 0.82628
w 80 79 -62 0.926602
w 80 -79 62 0.236853
w 80 -79 -62 0.197357
w 81 80 63 0.0200448
w 81 80 -63 0.152364
w 81 -80 63 0.0372822
w 81 -80 -63 0.364224
w 82 81 64 0.312083
w 82 81 -64 0.379371
w 82 -81 64 0.596349
w 82 -81 -64 0.523036
w 83 82 65 0.288765
w 83 82 -65 0.284147
w 83 -82 65 0.165501
w 83 -82 -65 0.0451515
w 84 83 66 1
w 84 83 -66 0
w 84 -83 66 0
w 84 -83 -66 0
w 85 84 67 0.757032
w 85 84 -67 0.269281
w 85 -84 67 0.152997
w 85 -84 -67 0.00224747
w 86 85 68 0.979277
w 86 85 -68 0.92885
w 86 -85 68 0.127341
w 86 -85 -68 0.176634
w 87 86 69 0.147386
w 87 86 -69 0.328998
w 87 -86 69 0.559894
w 87 -86 -69 0.511609
w 88 87 70 0.871977
w 88 87 -70 0.89098
w 88 -87 70 0.528806
w 88 -87 -70 0.395013
w 89 88 71 0.817571
w 89 88 -71 0.67916
w 89 -88 71 0.973739
w 89 -88 -71 0.862723
w 90 89 72 0.0354827
w 90 89 -72 0.371372
w 90 -89 72 0.636491
w 90 -89 -72 0.00188087
w 91 73 0.454108
w 91 -73 0.758913
w 92 91 74 1
w 92 91 -74 0
w 92 -91 74 1
w 92 -91 -74 0
w 93 92 75 0.0871616
w 93 92 -75 0.763016
w 93 -92 75 0.212621
w 93 -92 -75 0.234547
w 94 93 76 1
w 94 93 -76 1
w 94 -93 76 1
w 94 -93 -76 0
w 95 94 77 0.553277
w 95 94 -77 0.0395048
w 95 -94 77 0.445375
w 95 -94 -77 0.370849
w 96 95 78 0.419114
w 96 95 -78 0.233572
w 96 -95 78 0.45606
w 96 -95 -78 0.454596
w 97 96 79 0.0925509
w 97 96 -79 0.456477
w 97 -96 79 0.404996
w 97 -96 -79 0.546659
w 98 97 80 0
w 98 97 -80 0
w 98 -97 80 1
w 98 -97 -80 1
w 99 98 81 0.66656
w 99 98 -81 0.521311
w 99 -98 81 0.503162
w 99 -98 -81 0.879181
w 100 99 82 0.595176
w 100 99 -82 0.651695
w 100 -99 82 0.502015
w 100 -99 -82 0.619647
w 101 100 83 1
w 101 100 -83 0
w 101 -100 83 1
w 101 -100 -83 0
w 102 101 84 0.0543568
w 102 101 -84 0.00363979
w 102 -101 84 0.777344
w 102 -101 -84 0.510417
w 103 102 85 0
w 103 102 -85 1
w 103 -102 85 1
w 103 -102 -85 0
w 104 103 86 0
w 104 103 -86 0
w 104 -103 86 1
w 104 -103 -86 1
w 105 104 87 0.0435363
w 105 104 -87 0.773212
w 105 -104 87 0.217074
w 105 -104 -87 0.546698
w 106 105 88 0.972933
w 106 105 -88 0.141874
w 106 -105 88 0.304088
w 106 -105 -88 0.474948
w 107 106 89 0.600275
w 107 106 -89 0.6141
w 107 -106 89 0.934444
w 107 -106 -89 0.935967
w 108 107 90 0
w 108 107 -90 0
w 108 -107 90 1
w 108 -107 -90 0
w 109 91 0.637848
w 109 -91 0.103708
w 110 109 92 0.425132
w 110 109 -92 0.253334
w 110 -109 92 0.705318
w 110 -109 -92 0.686745
w 111 110 93 0.81197
w 111 110 -93 0.382508
w 111 -110 93 0.600261
w 111 -110 -93 0.585183
w 112 111 94 0.146959
w 112 111 -94 0.237576
w 112 -111 94 0.572515
w 112 -111 -94 0.288833
w 113 112 95 0.0474628
w 113 112 -95 0.0503533
w 113 -112 95 0.14194
w 113 -112 -95 0.661563
w 114 113 96 0.0779067
w 114 113 -96 0.860188
w 114 -113 96 0.463014
w 114 -113 -96 0.0682307
w 115 114 97 1
w 115 114 -97 1
w 115 -114 97 0
w 115 -114 -97 0
w 116 115 98 0.298171
w 116 115 -98 0.781553
w 116 -115 98 0.926014
w 116 -115 -98 0.00348855
w 117 116 99 0
w 117 116 -99 1
w 117 -116 99 0
w 117 -116 -99 0
w 118 117 100 1
w 118 117 -100 0
w 118 -117 100 1
w 118 -117 -100 0
w 119 118 101 0
w 119 118 -101 0
w 119 -118 101 0
w 119 -118 -101 1
w 120 119 102 0.399728
w 120 119 -102 0.592116
w 120 -119 102 0.0169564
w 120 -119 -102 0.467959
w 121 120 103 0.73553
w 121 120 -103 0.0369301
w 121 -120 103 0.377526
w 121 -120 -103 0.0919519
w 122 121 104 0.675697
w 122 121 -104 0.873505
w 122 -121 104 0.635623
w 122 -121 -104 0.679186
w 123 122 105 1
w 123 122 -105 1
w 123 -122 105 0
w 123 -122 -105 1
w 124 123 106 0.642997
w 124 123 -106 0.431321
w 124 -123 106 0.533504
w 124 -123 -106 0.665899
w 125 124 107 0.713386
w 125 124 -107 0.736265
w 125 -124 107 0.519258
w 125 -124 -107 0.0352073
w 126 125 108 0
w 126 125 -108 1
w 126 -125 108 0
w 126 -125 -108 1
w 127 109 0.714879
w 127 -109 0.825688
w 128 127 110 0.0924054
w 128 127 -110 0.91764
w 128 -127 110 0.649434
w 128 -127 -110 0.768103
w 129 128 111 0.285057
w 129 128 -111 0.447288
w 129 -128 111 0.132949
w 129 -128 -111 0.403419
w 130 129 112 0.325558
w 130 129 -112 0.604781
w 130 -129 112 0.83722
w 130 -129 -112 0.968555
w 131 130 113 0
w 131 130 -113 0
w 131 -130 113 0
w 131 -130 -113 1
w 132 131 114 1
w 132 131 -114 0
w 132 -131 114 0
w 132 -131 -114 1
w 133 132 115 0.899219
w 133 132 -115 0.668831
w 133 -132 115 0.457147
w 133 -132 -115 0.614098
w 134 133 116 0
w 134 133 -116 0
w 134 -133 116 1
w 134 -133 -116 0
w 135 134 117 1
w 135 134 -117 0
w 135 -134 117 1
w 135 -134 -117 0
w 136 135 118 0.863828
w 136 135 -118 0.661811
w 136 -135 118 0.339661
w 136 -135 -118 0.701048
w 137 136 119 0.375763
w 137 136 -119 0.0717717
w 137 -136 119 0.264819
w 137 -136 -119 0.361977
w 138 137 120 0
w 138 137 -120 0
w 138 -137 120 1
w 138 -137 -120 1
w 139 138 121 1
w 139 138 -121 1
w 139 -138 121 1
w 139 -138 -121 0
w 140 139 122 0.609474
w 140 139 -122 0.683569
w 140 -139 122 0.694269
w 140 -139 -122 0.0216329
w 141 140 123 0.168876
w 141 140 -123 0.224937
w 141 -140 123 0.061436
w 141 -140 -123 0.0907707
w 142 141 124 0.796317
w 142 141 -124 0.954599
w 142 -141 124 0.223
w 142 -141 -124 0.135978
w 143 142 125 0.853366
w 143 142 -125 0.51174
w 143 -142 125 0.727418
w 143 -142 -125 0.118185
w 144 143 126 0.8833
w 144 143 -126 0.753722
w 144 -143 126 0.741167
w 144 -143 -126 0.158499
w 145 127 1
w 145 -127 0
w 146 145 128 0.601837
w 146 145 -128 0.302245
w 146 -145 128 0.274548
w 146 -145 -128 0.589603
w 147 146 129 0.958117
w 147 146 -129 0.283872
w 147 -146 129 0.933351
w 147 -146 -129 0.688091
w 148 147 130 0
w 148 147 -130 0
w 148 -147 130 1
w 148 -147 -130 1
w 149 148 131 0.498118
w 149 148 -131 0.942479
w 149 -148 131 0.681822
w 149 -148 -131 0.153764
w 150 149 132 0.193562
w 150 149 -132 0.881183
w 150 -149 132 0.914029
w 150 -149 -132 0.0672797
w 151 150 133 0.667751
w 151 150 -133 0.808446
w 151 -150 133 0.922981
w 151 -150 -133 0.895921
w 152 151 134 0.910931
w 152 151 -134 0.497758
w 152 -151 134 0.297981
w 152 -151 -134 0.185479
w 153 152 135 0
w 153 152 -135 1
w 153 -152 135 1
w 153 -152 -135 0
w 154 153 136 0.823981
w 154 153 -136 0.301339
w 154 -153 136 0.581214
w 154 -153 -136 0.3675
w 155 154 137 1
w 155 154 -137 1
w 155 -154 137 1
w 155 -154 -137 0
w 156 155 138 1
w 156 155 -138 0
w 156 -155 138 1
w 156 -155 -138 1
w 157 156 139 1
w 157 156 -139 0
w 157 -156 139 0
w 157 -156 -139 1
w 158 157 140 0
w 158 157 -140 1
w 158 -157 140 1
w 158 -157 -140 1
w 159 158 141 0.821958
w 159 158 -141 0.381584
w 159 -158 141 0.828033
w 159 -158 -141 0.193191
w 160 159 142 0.65972
w 160 159 -142 0.0171727
w 160 -159 142 0.825974
w 160 -159 -142 0.240934
w 161 160 143 0
w 161 160 -143 1
w 161 -160 143 0
w 161 -160 -143 0
w 162 161 144 0
w 162 161 -144 1
w 162 -161 144 1
w 162 -161 -144 1
w 163 145 0
w 163 -145 1
w 164 163 146 0.583313
w 164 163 -146 0.127208
w 164 -163 146 0.423312
w 164 -163 -146 0.820153
w 165 164 147 1
w 165 164 -147 0
w 165 -164 147 1
w 165 -164 -147 0
w 166 165 148 1
w 166 165 -148 0
w 166 -165 148 1
w 166 -165 -148 0
w 167 166 149 1
w 167 166 -149 0
w 167 -166 149 0
w 167 -166 -149 0
w 168 167 150 0.703388
w 168 167 -150 0.222037
w 168 -167 150 0.562068
w 168 -167 -150 0.880261
w 169 168 151 0
w 169 168 -151 0
w 169 -168 151 1
w 169 -168 -151 1
w 170 169 152 1
w 170 169 -152 0
w 170 -169 152 0
w 170 -169 -152 1
w 171 170 153 0.436936
w 171 170 -153 0.842815
w 171 -170 153 0.331905
w 171 -170 -153 0.609934
w 172 171 154 0
w 172 171 -154 1
w 172 -171 154 0
w 172 -171 -154 1
w 173 172 155 1
w 173 172 -155 0
w 173 -172 155 0
w 173 -172 -155 1
w 174 173 156 0.900906
w 174 173 -156 0.0175089
w 174 -173 156 0.0593714
w 174 -173 -156 0.462974
w 175 174 157 0.551081
w 175 174 -157 0.594267
w 175 -174 157 0.957348
w 175 -174 -157 0.213028
w 176 175 158 0.265964
w 176 175 -158 0.710259
w 176 -175 158 0.924956
w 176 -175 -158 0.701788
w 177 176 159 0.702111
w 177 176 -159 0.138724
w 177 -176 159 0.473617
w 177 -176 -159 0.034016
w 178 177 160 0.92314
w 178 177 -160 0.74263
w 178 -177 160 0.913175
w 178 -177 -160 0.807404
w 179 178 161 0
w 179 178 -161 1
w 179 -178 161 0
w 179 -178 -161 0
w 180 179 162 1
w 180 179 -162 1
w 180 -179 162 0
w 180 -179 -162 1
w 181 163 0.0155296
w 181 -163 0.334521
w 182 181 164 0
w 182 181 -164 1
w 182 -181 164 1
w 182 -181 -164 1
w 183 182 165 1
w 183 182 -165 1
w 183 -182 165 0
w 183 -182 -165 0
w 184 183 166 1
w 184 183 -166 0
w 184 -183 166 0
w 184 -183 -166 1
w 185 184 167 0.741186
w 185 184 -167 0.0927718
w 185 -184 167 0.656796
w 185 -184 -167 0.898096
w 186 185 168 0.54353
w 186 185 -168 0.20393
w 186 -185 168 0.979152
w 186 -185 -168 0.267598
w 187 186 169 1
w 187 186 -169 1
w 187 -186 169 0
w 187 -186 -169 1
w 188 187 170 0
w 188 187 -170 1
w 188 -187 170 1
w 188 -187 -170 1
w 189 188 171 1
w 189 188 -171 0
w 189 -188 171 0
w 189 -188 -171 0
w 190 189 172 0
w 190 189 -172 0
w 190 -189 172 0
w 190 -189 -172 1
w 191 190 173 0.777666
w 191 190 -173 0.811435
w 191 -190 173 0.698792
w 191 -190 -173 0.321195
w 192 191 174 1
w 192 191 -174 1
w 192 -191 174 0
w 192 -191 -174 1
w 193 192 175 0.506419
w 193 192 -175 0.887295
w 193 -192 175 0.025389
w 193 -192 -175 0.850785
w 194 193 176 0.958496
w 194 193 -176 0.427087
w 194 -193 176 0.296773
w 194 -193 -176 0.14941
w 195 194 177 1
w 195 194 -177 0
w 195 -194 177 0
w 195 -194 -177 0
w 196 195 178 1
w 196 195 -178 0
w 196 -195 178 0
w 196 -195 -178 0
w 197 196 179 1
w 197 196 -179 1
w 197 -196 179 0
w 197 -196 -179 0
w 198 197 180 0.594429
w 198 197 -180 0.0462271
w 198 -197 180 0.244027
w 198 -197 -180 0.369284
w 199 181 0.750445
w 199 -181 0.25658
w 200 199 182 0.60123
w 200 199 -182 0.229193
w 200 -199 182 0.669943
w 200 -199 -182 0.0283171
w 201 200 183 0.819352
w 201 200 -183 0.1886
w 201 -200 183 0.0875265
w 201 -200 -183 0.0482858
w 202 201 184 0.993229
w 202 201 -184 0.718971
w 202 -201 184 0.178786
w 202 -201 -184 0.0710833
w 203 202 185 0
w 203 202 -185 0
w 203 -202 185 1
w 203 -202 -185 0
w 204 203 186 0.250954
w 204 203 -186 0.131031
w 204 -203 186 0.682898
w 204 -203 -186 0.845383
w 205 204 187 0
w 205 204 -187 1
w 205 -204 187 1
w 205 -204 -187 0
w 206 205 188 1
w 206 205 -188 0
w 206 -205 188 1
w 206 -205 -188 1
w 207 206 189 0
w 207 206 -189 1
w 207 -206 189 1
w 207 -206 -189 1
w 208 207 190 1
w 208 207 -190 0
w 208 -207 190 0
w 208 -207 -190 1
w 209 208 191 0.152745
w 209 208 -191 0.440522
w 209 -208 191 0.282556
w 209 -208 -191 0.826342
w 210 209 192 1
w 210 209 -192 1
w 210 -209 192 0
w 210 -209 -192 0
w 211 210 193 1
w 211 210 -193 0
w 211 -210 193 1
w 211 -210 -193 1
w 212 211 194 0.871218
w 212 211 -194 0.765249
w 212 -211 194 0.817415
w 212 -211 -194 0.178134
w 213 212 195 0.881472
w 213 212 -195 0.673651
w 213 -212 195 0.305588
w 213 -212 -195 0.993816
w 214 213 196 0
w 214 213 -196 0
w 214 -213 196 0
w 214 -213 -196 1
w 215 214 197 0.878382
w 215 214 -197 0.431516
w 215 -214 197 0.0557745
w 215 -214 -197 0.704724
w 216 215 198 0.589285
w 216 215 -198 0.662096
w 216 -215 198 0.725268
w 216 -215 -198 0.968179
w 217 199 0.640517
w 217 -199 0.56174
w 218 217 200 0.233135
w 218 217 -200 0.626549
w 218 -217 200 0.367383
w 218 -217 -200 0.104353
w 219 218 201 1
w 219 218 -201 1
w 219 -218 201 0
w 219 -218 -201 1
w 220 219 202 0.689042
w 220 219 -202 0.0600864
w 220 -219 202 0.0663887
w 220 -219 -202 0.301792
w 221 220 203 0.792026
w 221 220 -203 0.292786
w 221 -220 203 0.658434
w 221 -220 -203 0.670407
w 222 221 204 0.714209
w 222 221 -204 0.375131
w 222 -221 204 0.461245
w 222 -221 -204 0.303494
w 223 222 205 1
w 223 222 -205 0
w 223 -222 205 1
w 223 -222 -205 1
w 224 223 206 0.628628
w 224 223 -206 0.0601644
w 224 -223 206 0.459962
w 224 -223 -206 0.996012
w 225 224 207 1
w 225 224 -207 0
w 225 -224 207 1
w 225 -224 -207 1
w 226 225 208 0
w 226 225 -208 0
w 226 -225 208 0
w 226 -225 -208 1
w 227 226 209 0
w 227 226 -209 1
w 227 -226 209 0
w 227 -226 -209 1
w 228 227 210 0.243136
w 228 227 -210 0.565026
w 228 -227 210 0.307095
w 228 -227 -210 0.704381
w 229 228 211 0.344322
w 229 228 -211 0.890894
w 229 -228 211 0.140193
w 229 -228 -211 0.178277
w 230 229 212 0.973605
w 230 229 -212 0.806905
w 230 -229 212 0.778087
w 230 -229 -212 0.433567
w 231 230 213 0.942604
w 231 230 -213 0.285328
w 231 -230 213 0.983726
w 231 -230 -213 0.389609
w 232 231 214 0.230806
w 232 231 -214 0.792751
w 232 -231 214 0.444799
w 232 -231 -214 0.537973
w 233 232 215 1
w 233 232 -215 1
w 233 -232 215 0
w 233 -232 -215 1
w 234 233 216 0.455803
w 234 233 -216 0.432819
w 234 -233 216 0.146199
w 234 -233 -216 0.762898
w 235 217 0
w 235 -217 1
w 236 235 218 0
w 236 235 -218 1
w 236 -235 218 1
w 236 -235 -218 0
w 237 236 219 1
w 237 236 -219 1
w 237 -236 219 1
w 237 -236 -219 0
w 238 237 220 0
w 238 237 -220 1
w 238 -237 220 1
w 238 -237 -220 1
w 239 238 221 1
w 239 238 -221 1
w 239 -238 221 0
w 239 -238 -221 0
w 240 239 222 1
w 240 239 -222 1
w 240 -239 222 1
w 240 -239 -222 0
w 241 240 223 0.106105
w 241 240 -223 0.105553
w 241 -240 223 0.653891
w 241 -240 -223 0.243305
w 242 241 224 0
w 242 241 -224 0
w 242 -241 224 1
w 242 -241 -224 0
w 243 242 225 1
w 243 242 -225 0
w 243 -242 225 0
w 243 -242 -225 1
w 244 243 226 0
w 244 243 -226 0
w 244 -243 226 0
w 244 -243 -226 1
w 245 244 227 1
w 245 244 -227 1
w 245 -244 227 1
w 245 -244 -227 0
w 246 245 228 0
w 246 245 -228 1
w 246 -245 228 1
w 246 -245 -228 1
w 247 246 229 0.256903
w 247 246 -229 0.114139
w 247 -246 229 0.405039
w 247 -246 -229 0.500208
w 248 247 230 0
w 248 247 -230 1
w 248 -247 230 1
w 248 -247 -230 0
w 249 248 231 0.913299
w 249 248 -231 0.351771
w 249 -248 231 0.330544
w 249 -248 -231 0.879085
w 250 249 232 1
w 250 249 -232 0
w 250 -249 232 1
w 250 -249 -232 0
w 251 250 233 0.322704
w 251 250 -233 0.71693
w 251 -250 233 0.867349
w 251 -250 -233 0.993756
w 252 251 234 0
w 252 251 -234 1
w 252 -251 234 0
w 252 -251 -234 1
w 253 235 1
w 253 -235 0
w 254 253 236 0.165714
w 254 253 -236 0.158236
w 254 -253 236 0.25277
w 254 -253 -236 0.400126
w 255 254 237 1
w 255 254 -237 1
w 255 -254 237 0
w 255 -254 -237 1
w 256 255 238 0.888916
w 256 255 -238 0.143946
w 256 -255 238 0.702107
w 256 -255 -238 0.275018
w 257 256 239 1
w 257 256 -239 1
w 257 -256 239 0
w 257 -256 -239 1
w 258 257 240 0.402964
w 258 257 -240 0.135181
w 258 -257 240 0.890955
w 258 -257 -240 0.544859
w 259 258 241 1
w 259 258 -241 0
w 259 -258 241 0
w 259 -258 -241 0
w 260 259 242 1
w 260 259 -242 0
w 260 -259 242 0
w 260 -259 -242 0
w 261 260 243 0.782727
w 261 260 -243 0.00541296
w 261 -260 243 0.461082
w 261 -260 -243 0.319872
w 262 261 244 0.284104
w 262 261 -244 0.208789
w 262 -261 244 0.962761
w 262 -261 -244 0.986211
w 263 262 245 1
w 263 262 -245 0
w 263 -262 245 0
w 263 -262 -245 0
w 264 263 246 0.534477
w 264 263 -246 0.783616
w 264 -263 246 0.846454
w 264 -263 -246 0.0793358
w 265 264 247 0
w 265 264 -247 0
w 265 -264 247 0
w 265 -264 -247 1
w 266 265 248 0.917149
w 266 265 -248 0.38469
w 266 -265 248 0.94866
w 266 -265 -248 0.468508
w 267 266 249 1
w 267 266 -249 0
w 267 -266 249 0
w 267 -266 -249 1
w 268 267 250 1
w 268 267 -250 1
w 268 -267 250 1
w 268 -267 -250 0
w 269 268 251 1
w 269 268 -251 0
w 269 -268 251 1
w 269 -268 -251 1
w 270 269 252 0
w 270 269 -252 1
w 270 -269 252 0
w 270 -269 -252 0
w 271 253 0.552695
w 271 -253 0.515578
w 272 271 254 0.479044
w 272 271 -254 0.483203
w 272 -271 254 0.503602
w 272 -271 -254 0.863735
w 273 272 255 1
w 273 272 -255 0
w 273 -272 255 1
w 273 -272 -255 1
w 274 273 256 0.158824
w 274 273 -256 0.115393
w 274 -273 256 0.21452
w 274 -273 -256 0.894472
w 275 274 257 1
w 275 274 -257 0
w 275 -274 257 1
w 275 -274 -257 1
w 276 275 258 1
w 276 275 -258 0
w 276 -275 258 0
w 276 -275 -258 1
w 277 276 259 0.161803
w 277 276 -259 0.413525
w 277 -276 259 0.686955
w 277 -276 -259 0.714498
w 278 277 260 0.273409
w 278 277 -260 0.193542
w 278 -277 260 0.412306
w 278 -277 -260 0.777012
w 279 278 261 0
w 279 278 -261 1
w 279 -278 261 1
w 279 -278 -261 1
w 280 279 262 0.60687
w 280 279 -262 0.388929
w 280 -279 262 0.766215
w 280 -279 -262 0.82139
w 281 280 263 1
w 281 280 -263 1
w 281 -280 263 0
w 281 -280 -263 0
w 282 281 264 0.747236
w 282 281 -264 0.102067
w 282 -281 264 0.674663
w 282 -281 -264 0.982588
w 283 282 265 1
w 283 282 -265 0
w 283 -282 265 1
w 283 -282 -265 0
w 284 283 266 0.582002
w 284 283 -266 0.501446
w 284 -283 266 0.0524295
w 284 -283 -266 0.994308
w 285 284 267 0
w 285 284 -267 0
w 285 -284 267 1
w 285 -284 -267 1
w 286 285 268 1
w 286 285 -268 1
w 286 -285 268 1
w 286 -285 -268 0
w 287 286 269 0.740912
w 287 286 -269 0.526128
w 287 -286 269 0.842189
w 287 -286 -269 0.0999113
w 288 287 270 0.690575
w 288 287 -270 0.847147
w 288 -287 270 0.605514
w 288 -287 -270 0.365239
w 289 271 0.844889
w 289 -271 0.90632
w 290 289 272 0.497788
w 290 289 -272 0.134356
w 290 -289 272 0.833012
w 290 -289 -272 0.0797901
w 291 290 273 0.885442
w 291 290 -273 0.0740985
w 291 -290 273 0.914259
w 291 -290 -273 0.995148
w 292 291 274 0.941838
w 292 291 -274 0.193283
w 292 -291 274 0.981159
w 292 -291 -274 0.620238
w 293 292 275 0.438671
w 293 292 -275 0.0648536
w 293 -292 275 0.624682
w 293 -292 -275 0.179583
w 294 293 276 0.466871
w 294 293 -276 0.279494
w 294 -293 276 0.0944292
w 294 -293 -276 0.157446
w 295 294 277 1
w 295 294 -277 0
w 295 -294 277 0
w 295 -294 -277 1
w 296 295 278 1
w 296 295 -278 0
w 296 -295 278 0
w 296 -295 -278 0
w 297 296 279 0
w 297 296 -279 0
w 297 -296 279 1
w 297 -296 -279 1
w 298 297 280 0.109085
w 298 297 -280 0.0552584
w 298 -297 280 0.837386
w 298 -297 -280 0.0902444
w 299 298 281 0.835673
w 299 298 -281 0.528915
w 299 -298 281 0.74035
w 299 -298 -281 0.460355
w 300 299 282 0.331332
w 300 299 -282 0.927225
w 300 -299 282 0.987993
w 300 -299 -282 0.425762
w 301 300 283 0
w 301 300 -283 0
w 301 -300 283 1
w 301 -300 -283 0
w 302 301 284 0.0363595
w 302 301 -284 0.00151187
w 302 -301 284 0.713158
w 302 -301 -284 0.599719
w 303 302 285 0.835569
w 303 302 -285 0.798881
w 303 -302 285 0.413981
w 303 -302 -285 0.0320777
w 304 303 286 0.058084
w 304 303 -286 0.141163
w 304 -303 286 0.96756
w 304 -303 -286 0.89547
w 305 304 287 0
w 305 304 -287 1
w 305 -304 287 0
w 305 -304 -287 0
w 306 305 288 0
w 306 305 -288 0
w 306 -305 288 1
w 306 -305 -288 0
w 307 289 1
w 307 -289 0
w 308 307 290 1
w 308 307 -290 1
w 308 -307 290 0
w 308 -307 -290 0
w 309 308 291 0.649902
w 309 308 -291 0.44683
w 309 -308 291 0.408996
w 309 -308 -291 0.48547
w 310 309 292 1
w 310 309 -292 0
w 310 -309 292 1
w 310 -309 -292 0
w 311 310 293 0.125572
w 311 310 -293 0.776531
w 311 -310 293 0.890119
w 311 -310 -293 0.768628
w 312 311 294 0.650441
w 312 311 -294 0.152035
w 312 -311 294 0.699173
w 312 -311 -294 0.119262
w 313 312 295 0.817897
w 313 312 -295 0.576076
w 313 -312 295 0.00727529
w 313 -312 -295 0.021292
w 314 313 296 1
w 314 313 -296 0
w 314 -313 296 0
w 314 -313 -296 0
w 315 314 297 1
w 315 314 -297 1
w 315 -314 297 0
w 315 -314 -297 0
w 316 315 298 1
w 316 315 -298 0
w 316 -315 298 0
w 316 -315 -298 1
w 317 316 299 0.655277
w 317 316 -299 0.32352
w 317 -316 299 0.411975
w 317 -316 -299 0.423905
w 318 317 300 0.0624161
w 318 317 -300 0.57594
w 318 -317 300 0.530368
w 318 -317 -300 0.181678
w 319 318 301 0
w 319 318 -301 0
w 319 -318 301 1
w 319 -318 -301 1
w 320 319 302 0.723471
w 320 319 -302 0.201599
w 320 -319 302 0.695262
w 320 -319 -302 0.933696
w 321 320 303 0.129217
w 321 320 -303 0.793823
w 321 -320 303 0.0067349
w 321 -320 -303 0.972168
w 322 321 304 1
w 322 321 -304 0
w 322 -321 304 0
w 322 -321 -304 0
w 323 322 305 0
w 323 322 -305 1
w 323 -322 305 1
w 323 -322 -305 1
w 324 323 306 0.339799
w 324 323 -306 0.998813
w 324 -323 306 0.563254
w 324 -323 -306 0.870166